In6 Fe16 Sb6 H9
1.0
3.967806 -6.872442 0.000000
3.967806 6.872442 0.000000
0.000000 0.000000 94.660798
Fe
16
direct
0.000000 0.000000 0.554628 Fe
0.000000 0.500000 0.554628 Fe
0.500000 0.500000 0.554628 Fe
0.500000 0.000000 0.554628 Fe
0.166667 0.333333 0.545918 Fe
0.166667 0.833333 0.545918 Fe
0.666667 0.833333 0.545918 Fe
0.666667 0.333333 0.545918 Fe
0.333333 0.666667 0.537208 Fe
0.333333 0.166667 0.537208 Fe
0.833333 0.166667 0.537208 Fe
0.833333 0.666667 0.537208 Fe
0.000000 0.000000 0.528499 Fe
0.000000 0.500000 0.528499 Fe
0.500000 0.500000 0.528499 Fe
0.500000 0.000000 0.528499 Fe
