In6 Fe16 Sb6 H9
1.0
3.967806 -6.872442 0.000000
3.967806 6.872442 0.000000
0.000000 0.000000 94.660798
In Sb H
6 6 9
direct
0.666667 0.666667 0.478788 In
0.333333 0.000000 0.478788 In
0.000000 0.333333 0.478788 In
0.333333 0.333333 0.439269 In
0.000000 0.666667 0.439269 In
0.666667 0.000000 0.439269 In
0.666667 0.666667 0.508427 Sb
0.333333 0.000000 0.508427 Sb
0.000000 0.333333 0.508427 Sb
0.333333 0.333333 0.468908 Sb
0.000000 0.666667 0.468908 Sb
0.666667 0.000000 0.468908 Sb
0.666667 0.184981 0.430171 H
0.518315 0.333333 0.430171 H
0.815019 0.481685 0.430171 H
0.184981 0.666667 0.430163 H
0.481685 0.815019 0.430163 H
0.333333 0.518315 0.430163 H
0.148351 0.148351 0.430161 H
0.000000 0.851648 0.430161 H
0.851648 0.000000 0.430161 H
